clingo version 5.1.0
Reading from ASP/config.gringo ...
Solving...
Answer: 1
repair(rEdge("b","t"))
Optimization: 1
Answer: 2

Optimization: 0
Answer: 1

Optimization: 0
OPTIMUM FOUND

Models       : 3
  Optimum    : yes
Optimization : 0
Calls        : 1
